peakDumbCharging = 14800; 
Machine = anon_enum(16); 
machineSpeed = [3700,3700,3700,3700,3700,3700,3700,3700,3700,3700,3700,3700,3700,3700,3700,3700]; 
machineLoad = [3700,3700,3700,3700,3700,3700,3700,3700,3700,3700,3700,3700,3700,3700,3700,3700]; 
Car = anon_enum(8); 
demandCar = [5520,8760,11800,4960,4240,5320,28680,20160]; 
arrivalCar = [69,64,58,55,55,54,49,42]; 
departureCar = [71,67,64,59,59,57,62,50]; 
